objective value:                                10555
t_x_1                                               1 	(obj:21)
t_x_3                                               1 	(obj:47)
t_x_5                                               1 	(obj:25)
t_x_6                                               1 	(obj:11)
t_x_10                                              1 	(obj:11)
t_x_12                                              1 	(obj:2)
t_x_15                                              1 	(obj:0)
t_x_17                                              1 	(obj:9)
t_x_19                                              1 	(obj:31)
t_x_21                                              1 	(obj:8)
t_x_25                                              1 	(obj:35)
t_x_26                                              1 	(obj:7)
t_x_30                                              1 	(obj:8)
t_x_31                                              1 	(obj:0)
t_x_34                                              1 	(obj:34)
t_x_36                                              1 	(obj:10)
t_x_39                                              1 	(obj:38)
t_x_41                                              1 	(obj:12)
t_x_45                                              1 	(obj:28)
t_x_46                                              1 	(obj:21)
t_x_48                                              1 	(obj:5)
t_x_49                                              1 	(obj:27)
t_x_52                                              1 	(obj:1)
t_x_57                                              1 	(obj:29)
t_x_59                                              1 	(obj:17)
t_x_65                                              1 	(obj:22)
t_x_68                                              1 	(obj:38)
t_x_71                                              1 	(obj:82)
t_x_77                                              1 	(obj:17)
t_x_78                                              1 	(obj:12)
t_x_80                                              1 	(obj:14)
t_x_81                                              1 	(obj:21)
t_x_90                                              1 	(obj:21)
t_x_93                                              1 	(obj:24)
t_x_95                                              1 	(obj:1)
t_x_96                                              1 	(obj:36)
t_x_98                                              1 	(obj:35)
t_x_100                                             1 	(obj:25)
t_x_105                                             1 	(obj:1)
t_x_107                                             1 	(obj:16)
t_x_109                                             1 	(obj:4)
t_x_113                                             1 	(obj:0)
t_x_114                                             1 	(obj:5)
t_x_116                                             1 	(obj:7)
t_x_128                                             1 	(obj:22)
t_x_130                                             1 	(obj:3)
t_x_131                                             1 	(obj:18)
t_x_137                                             1 	(obj:17)
t_x_139                                             1 	(obj:18)
t_x_142                                             1 	(obj:18)
t_x_143                                             1 	(obj:4)
t_x_144                                             1 	(obj:36)
t_x_145                                             1 	(obj:13)
t_x_147                                             1 	(obj:1)
t_x_149                                             1 	(obj:36)
t_x_150                                             1 	(obj:25)
t_x_158                                             1 	(obj:3)
t_x_163                                             1 	(obj:5)
t_x_166                                             1 	(obj:16)
t_x_172                                             1 	(obj:15)
t_x_174                                             1 	(obj:1)
t_x_179                                             1 	(obj:5)
t_x_181                                             1 	(obj:0)
t_x_182                                             1 	(obj:22)
t_x_186                                             1 	(obj:37)
t_x_187                                             1 	(obj:15)
t_x_188                                             1 	(obj:17)
t_x_190                                             1 	(obj:26)
t_x_191                                             1 	(obj:14)
t_x_194                                             1 	(obj:8)
t_x_201                                             1 	(obj:31)
t_x_202                                             1 	(obj:16)
t_x_203                                             1 	(obj:13)
t_x_204                                             1 	(obj:14)
t_x_206                                             1 	(obj:32)
t_x_208                                             1 	(obj:20)
t_x_209                                             1 	(obj:31)
t_x_210                                             1 	(obj:28)
t_x_211                                             1 	(obj:7)
t_x_216                                             1 	(obj:0)
t_x_217                                             1 	(obj:17)
t_x_224                                             1 	(obj:39)
t_x_225                                             1 	(obj:41)
t_x_227                                             1 	(obj:19)
t_x_232                                             1 	(obj:54)
t_x_234                                             1 	(obj:27)
t_x_235                                             1 	(obj:7)
t_x_239                                             1 	(obj:19)
t_x_242                                             1 	(obj:2)
t_x_244                                             1 	(obj:13)
t_x_246                                             1 	(obj:9)
t_x_250                                             1 	(obj:15)
t_x_254                                             1 	(obj:24)
t_x_258                                             1 	(obj:30)
t_x_262                                             1 	(obj:27)
t_x_266                                             1 	(obj:24)
t_x_272                                             1 	(obj:20)
t_x_275                                             1 	(obj:13)
t_x_279                                             1 	(obj:43)
t_x_280                                             1 	(obj:19)
t_x_281                                             1 	(obj:11)
t_x_282                                             1 	(obj:22)
t_x_283                                             1 	(obj:29)
t_x_286                                             1 	(obj:44)
t_x_289                                             1 	(obj:27)
t_x_292                                             1 	(obj:27)
t_x_293                                             1 	(obj:18)
t_x_295                                             1 	(obj:4)
t_x_296                                             1 	(obj:23)
t_x_300                                             1 	(obj:40)
t_x_309                                             1 	(obj:20)
t_x_311                                             1 	(obj:11)
t_x_314                                             1 	(obj:0)
t_x_318                                             1 	(obj:24)
t_x_319                                             1 	(obj:12)
t_x_320                                             1 	(obj:9)
t_x_324                                             1 	(obj:1)
t_x_326                                             1 	(obj:8)
t_x_327                                             1 	(obj:26)
t_x_329                                             1 	(obj:22)
t_x_332                                             1 	(obj:4)
t_x_335                                             1 	(obj:15)
t_x_339                                             1 	(obj:3)
t_x_340                                             1 	(obj:12)
t_x_343                                             1 	(obj:20)
t_x_344                                             1 	(obj:56)
t_x_346                                             1 	(obj:2)
t_x_349                                             1 	(obj:2)
t_x_356                                             1 	(obj:3)
t_x_357                                             1 	(obj:5)
t_x_361                                             1 	(obj:18)
t_x_365                                             1 	(obj:8)
t_x_371                                             1 	(obj:12)
t_x_372                                             1 	(obj:6)
t_x_376                                             1 	(obj:5)
t_x_379                                             1 	(obj:28)
t_x_383                                             1 	(obj:12)
t_x_391                                             1 	(obj:23)
t_x_393                                             1 	(obj:15)
t_x_396                                             1 	(obj:18)
t_x_400                                             1 	(obj:22)
t_x_403                                             1 	(obj:10)
t_x_404                                             1 	(obj:3)
t_x_407                                             1 	(obj:2)
t_x_411                                             1 	(obj:4)
t_x_412                                             1 	(obj:33)
t_x_419                                             1 	(obj:9)
t_x_420                                             1 	(obj:47)
t_x_427                                             1 	(obj:4)
t_x_428                                             1 	(obj:8)
t_x_435                                             1 	(obj:9)
t_x_437                                             1 	(obj:18)
t_x_441                                             1 	(obj:42)
t_x_444                                             1 	(obj:33)
t_x_446                                             1 	(obj:40)
t_x_452                                             1 	(obj:19)
t_x_453                                             1 	(obj:51)
t_x_454                                             1 	(obj:20)
t_x_458                                             1 	(obj:19)
t_x_459                                             1 	(obj:12)
t_x_463                                             1 	(obj:21)
t_x_470                                             1 	(obj:8)
t_x_472                                             1 	(obj:16)
t_x_485                                             1 	(obj:60)
t_x_486                                             1 	(obj:15)
t_x_487                                             1 	(obj:24)
t_x_489                                             1 	(obj:21)
t_x_490                                             1 	(obj:15)
t_x_493                                             1 	(obj:18)
t_x_495                                             1 	(obj:5)
t_x_497                                             1 	(obj:13)
t_x_503                                             1 	(obj:43)
t_x_508                                             1 	(obj:36)
t_x_509                                             1 	(obj:37)
t_x_511                                             1 	(obj:3)
t_x_512                                             1 	(obj:0)
t_x_517                                             1 	(obj:16)
t_x_525                                             1 	(obj:17)
t_x_526                                             1 	(obj:3)
t_x_527                                             1 	(obj:2)
t_x_532                                             1 	(obj:35)
t_x_538                                             1 	(obj:13)
t_x_541                                             1 	(obj:26)
t_x_543                                             1 	(obj:10)
t_x_545                                             1 	(obj:26)
t_x_547                                             1 	(obj:8)
t_x_550                                             1 	(obj:21)
t_x_552                                             1 	(obj:8)
t_x_565                                             1 	(obj:3)
t_x_566                                             1 	(obj:16)
t_x_568                                             1 	(obj:29)
t_x_569                                             1 	(obj:14)
t_x_573                                             1 	(obj:32)
t_x_584                                             1 	(obj:22)
t_x_586                                             1 	(obj:3)
t_x_588                                             1 	(obj:25)
t_x_589                                             1 	(obj:2)
t_x_598                                             1 	(obj:54)
t_x_599                                             1 	(obj:12)
t_x_606                                             1 	(obj:23)
t_x_608                                             1 	(obj:14)
t_x_610                                             1 	(obj:21)
t_x_611                                             1 	(obj:22)
t_x_613                                             1 	(obj:36)
t_x_615                                             1 	(obj:24)
t_x_618                                             1 	(obj:16)
t_x_619                                             1 	(obj:35)
t_x_621                                             1 	(obj:9)
t_x_622                                             1 	(obj:2)
t_x_624                                             1 	(obj:18)
t_x_629                                             1 	(obj:7)
t_x_636                                             1 	(obj:18)
t_x_637                                             1 	(obj:5)
t_x_639                                             1 	(obj:7)
t_x_641                                             1 	(obj:24)
t_x_646                                             1 	(obj:14)
t_x_649                                             1 	(obj:27)
t_x_655                                             1 	(obj:26)
t_x_665                                             1 	(obj:12)
t_x_669                                             1 	(obj:17)
t_x_679                                             1 	(obj:14)
t_x_682                                             1 	(obj:0)
t_x_683                                             1 	(obj:11)
t_x_684                                             1 	(obj:0)
t_x_688                                             1 	(obj:8)
t_x_696                                             1 	(obj:1)
t_x_697                                             1 	(obj:8)
t_x_704                                             1 	(obj:32)
t_x_706                                             1 	(obj:22)
t_x_719                                             1 	(obj:1)
t_x_721                                             1 	(obj:30)
t_x_722                                             1 	(obj:31)
t_x_724                                             1 	(obj:61)
t_x_728                                             1 	(obj:14)
t_x_731                                             1 	(obj:3)
t_x_733                                             1 	(obj:28)
t_x_738                                             1 	(obj:24)
t_x_739                                             1 	(obj:18)
t_x_741                                             1 	(obj:11)
t_x_742                                             1 	(obj:18)
t_x_744                                             1 	(obj:0)
t_x_746                                             1 	(obj:10)
t_x_747                                             1 	(obj:15)
t_x_748                                             1 	(obj:0)
t_x_763                                             1 	(obj:0)
t_x_770                                             1 	(obj:31)
t_x_771                                             1 	(obj:13)
t_x_778                                             1 	(obj:34)
t_x_780                                             1 	(obj:62)
t_x_781                                             1 	(obj:9)
t_x_783                                             1 	(obj:1)
t_x_790                                             1 	(obj:15)
t_x_794                                             1 	(obj:0)
t_x_795                                             1 	(obj:16)
t_x_801                                             1 	(obj:2)
t_x_802                                             1 	(obj:5)
t_x_804                                             1 	(obj:24)
t_x_809                                             1 	(obj:15)
t_x_811                                             1 	(obj:33)
t_x_815                                             1 	(obj:5)
t_x_821                                             1 	(obj:9)
t_x_831                                             1 	(obj:19)
t_x_832                                             1 	(obj:5)
t_x_834                                             1 	(obj:8)
t_x_837                                             1 	(obj:24)
t_x_839                                             1 	(obj:22)
t_x_841                                             1 	(obj:4)
t_x_845                                             1 	(obj:32)
t_x_847                                             1 	(obj:4)
t_x_852                                             1 	(obj:1)
t_x_853                                             1 	(obj:7)
t_x_854                                             1 	(obj:20)
t_x_856                                             1 	(obj:1)
t_x_859                                             1 	(obj:6)
t_x_860                                             1 	(obj:13)
t_x_864                                             1 	(obj:13)
t_x_865                                             1 	(obj:6)
t_x_866                                             1 	(obj:14)
t_x_867                                             1 	(obj:8)
t_x_868                                             1 	(obj:12)
t_x_869                                             1 	(obj:0)
t_x_875                                             1 	(obj:25)
t_x_876                                             1 	(obj:13)
t_x_879                                             1 	(obj:16)
t_x_882                                             1 	(obj:3)
t_x_883                                             1 	(obj:8)
t_x_886                                             1 	(obj:6)
t_x_892                                             1 	(obj:50)
t_x_898                                             1 	(obj:17)
t_x_901                                             1 	(obj:24)
t_x_903                                             1 	(obj:3)
t_x_905                                             1 	(obj:30)
t_x_909                                             1 	(obj:6)
t_x_913                                             1 	(obj:26)
t_x_914                                             1 	(obj:0)
t_x_923                                             1 	(obj:14)
t_x_931                                             1 	(obj:16)
t_x_932                                             1 	(obj:3)
t_x_934                                             1 	(obj:34)
t_x_937                                             1 	(obj:32)
t_x_938                                             1 	(obj:43)
t_x_943                                             1 	(obj:29)
t_x_944                                             1 	(obj:8)
t_x_946                                             1 	(obj:17)
t_x_949                                             1 	(obj:1)
t_x_952                                             1 	(obj:29)
t_x_962                                             1 	(obj:22)
t_x_966                                             1 	(obj:17)
t_x_969                                             1 	(obj:7)
t_x_974                                             1 	(obj:4)
t_x_975                                             1 	(obj:50)
t_x_976                                             1 	(obj:3)
t_x_978                                             1 	(obj:6)
t_x_979                                             1 	(obj:26)
t_x_980                                             1 	(obj:42)
t_x_983                                             1 	(obj:1)
t_x_985                                             1 	(obj:2)
t_x_992                                             1 	(obj:23)
t_x_995                                             1 	(obj:2)
t_x_998                                             1 	(obj:2)
t_x_1004                                            1 	(obj:8)
t_x_1005                                            1 	(obj:20)
t_x_1006                                            1 	(obj:22)
t_x_1007                                            1 	(obj:19)
t_x_1010                                            1 	(obj:23)
t_x_1012                                            1 	(obj:1)
t_x_1013                                            1 	(obj:8)
t_x_1017                                            1 	(obj:26)
t_x_1024                                            1 	(obj:4)
t_x_1028                                            1 	(obj:13)
t_x_1030                                            1 	(obj:36)
t_x_1034                                            1 	(obj:21)
t_x_1038                                            1 	(obj:5)
t_x_1042                                            1 	(obj:36)
t_x_1043                                            1 	(obj:23)
t_x_1044                                            1 	(obj:4)
t_x_1047                                            1 	(obj:21)
t_x_1057                                            1 	(obj:34)
t_x_1067                                            1 	(obj:5)
t_x_1070                                            1 	(obj:5)
t_x_1078                                            1 	(obj:11)
t_x_1079                                            1 	(obj:3)
t_x_1083                                            1 	(obj:22)
t_x_1085                                            1 	(obj:38)
t_x_1086                                            1 	(obj:5)
t_x_1089                                            1 	(obj:11)
t_x_1090                                            1 	(obj:16)
t_x_1091                                            1 	(obj:6)
t_x_1095                                            1 	(obj:28)
t_x_1096                                            1 	(obj:5)
t_x_1098                                            1 	(obj:9)
t_x_1101                                            1 	(obj:10)
t_x_1106                                            1 	(obj:17)
t_x_1110                                            1 	(obj:17)
t_x_1113                                            1 	(obj:31)
t_x_1114                                            1 	(obj:27)
t_x_1118                                            1 	(obj:0)
t_x_1121                                            1 	(obj:16)
t_x_1122                                            1 	(obj:33)
t_x_1123                                            1 	(obj:14)
t_x_1125                                            1 	(obj:7)
t_x_1129                                            1 	(obj:29)
t_x_1131                                            1 	(obj:10)
t_x_1132                                            1 	(obj:6)
t_x_1134                                            1 	(obj:5)
t_x_1138                                            1 	(obj:8)
t_x_1142                                            1 	(obj:5)
t_x_1144                                            1 	(obj:38)
t_x_1148                                            1 	(obj:5)
t_x_1150                                            1 	(obj:43)
t_x_1153                                            1 	(obj:61)
t_x_1155                                            1 	(obj:25)
t_x_1162                                            1 	(obj:0)
t_x_1163                                            1 	(obj:7)
t_x_1167                                            1 	(obj:3)
t_x_1169                                            1 	(obj:4)
t_x_1175                                            1 	(obj:67)
t_x_1179                                            1 	(obj:44)
t_x_1180                                            1 	(obj:20)
t_x_1182                                            1 	(obj:22)
t_x_1183                                            1 	(obj:9)
t_x_1185                                            1 	(obj:27)
t_x_1187                                            1 	(obj:13)
t_x_1188                                            1 	(obj:23)
t_x_1194                                            1 	(obj:11)
t_x_1198                                            1 	(obj:2)
t_x_1199                                            1 	(obj:57)
t_x_1218                                            1 	(obj:18)
t_x_1222                                            1 	(obj:27)
t_x_1230                                            1 	(obj:24)
t_x_1234                                            1 	(obj:35)
t_x_1240                                            1 	(obj:61)
t_x_1245                                            1 	(obj:30)
t_x_1250                                            1 	(obj:21)
t_x_1255                                            1 	(obj:19)
t_x_1258                                            1 	(obj:29)
t_x_1260                                            1 	(obj:35)
t_x_1265                                            1 	(obj:21)
t_x_1266                                            1 	(obj:40)
t_x_1283                                            1 	(obj:3)
t_x_1288                                            1 	(obj:6)
t_x_1291                                            1 	(obj:20)
t_x_1293                                            1 	(obj:22)
t_x_1303                                            1 	(obj:31)
t_x_1305                                            1 	(obj:16)
t_x_1314                                            1 	(obj:25)
t_x_1322                                            1 	(obj:38)
t_x_1323                                            1 	(obj:34)
t_x_1326                                            1 	(obj:39)
t_x_1331                                            1 	(obj:32)
t_x_1345                                            1 	(obj:0)
t_x_1350                                            1 	(obj:0)
t_x_1352                                            1 	(obj:3)
t_x_1355                                            1 	(obj:14)
t_x_1356                                            1 	(obj:12)
t_x_1357                                            1 	(obj:5)
t_x_1363                                            1 	(obj:16)
t_x_1372                                            1 	(obj:12)
t_x_1373                                            1 	(obj:10)
t_x_1374                                            1 	(obj:4)
t_x_1379                                            1 	(obj:21)
t_x_1384                                            1 	(obj:20)
t_x_1389                                            1 	(obj:14)
t_x_1390                                            1 	(obj:3)
t_x_1392                                            1 	(obj:17)
t_x_1395                                            1 	(obj:18)
t_x_1398                                            1 	(obj:15)
t_x_1400                                            1 	(obj:31)
t_x_1401                                            1 	(obj:5)
t_x_1406                                            1 	(obj:5)
t_x_1407                                            1 	(obj:5)
t_x_1415                                            1 	(obj:5)
t_x_1419                                            1 	(obj:10)
t_x_1422                                            1 	(obj:6)
t_x_1426                                            1 	(obj:25)
t_x_1431                                            1 	(obj:10)
t_x_1436                                            1 	(obj:9)
t_x_1443                                            1 	(obj:36)
t_x_1445                                            1 	(obj:37)
t_x_1450                                            1 	(obj:6)
t_x_1457                                            1 	(obj:19)
t_x_1461                                            1 	(obj:12)
t_x_1462                                            1 	(obj:8)
t_x_1466                                            1 	(obj:14)
t_x_1467                                            1 	(obj:20)
t_x_1476                                            1 	(obj:14)
t_x_1481                                            1 	(obj:13)
t_x_1482                                            1 	(obj:21)
t_x_1488                                            1 	(obj:9)
t_x_1492                                            1 	(obj:6)
t_x_1494                                            1 	(obj:27)
t_x_1496                                            1 	(obj:69)
t_x_1497                                            1 	(obj:14)
t_x_1501                                            1 	(obj:5)
t_x_1509                                            1 	(obj:35)
t_x_1511                                            1 	(obj:53)
t_x_1514                                            1 	(obj:25)
t_x_1515                                            1 	(obj:32)
t_x_1523                                            1 	(obj:26)
t_x_1530                                            1 	(obj:36)
t_x_1535                                            1 	(obj:50)
t_x_1538                                            1 	(obj:24)
t_x_1542                                            1 	(obj:33)
t_x_1555                                            1 	(obj:36)
t_x_1556                                            1 	(obj:58)
t_x_1559                                            1 	(obj:15)
t_x_1560                                            1 	(obj:15)
t_x_1561                                            1 	(obj:10)
t_x_1564                                            1 	(obj:23)
t_x_1566                                            1 	(obj:9)
t_x_1571                                            1 	(obj:11)
t_x_1576                                            1 	(obj:45)
t_x_1577                                            1 	(obj:41)
t_x_1578                                            1 	(obj:14)
t_x_1585                                            1 	(obj:32)
t_x_1588                                            1 	(obj:17)
t_x_1597                                            1 	(obj:11)
t_x_1609                                            1 	(obj:9)
t_x_1611                                            1 	(obj:16)
t_x_1617                                            1 	(obj:21)
t_x_1619                                            1 	(obj:13)
t_x_1621                                            1 	(obj:12)
t_x_1622                                            1 	(obj:26)
t_x_1624                                            1 	(obj:6)
t_x_1633                                            1 	(obj:30)
t_x_1638                                            1 	(obj:21)
t_x_1639                                            1 	(obj:12)
t_x_1640                                            1 	(obj:4)
t_x_1642                                            1 	(obj:11)
t_x_1643                                            1 	(obj:6)
t_x_1647                                            1 	(obj:14)
t_x_1649                                            1 	(obj:15)
t_x_1653                                            1 	(obj:21)
t_x_1659                                            1 	(obj:11)
t_x_1660                                            1 	(obj:24)
t_x_1663                                            1 	(obj:8)
t_x_1666                                            1 	(obj:36)
t_x_1673                                            1 	(obj:17)
t_x_1685                                            1 	(obj:5)
t_x_1690                                            1 	(obj:19)
t_x_1691                                            1 	(obj:1)
t_x_1697                                            1 	(obj:11)
t_x_1699                                            1 	(obj:37)
t_x_1700                                            1 	(obj:1)
t_x_1701                                            1 	(obj:14)
t_x_1702                                            1 	(obj:30)
t_x_1704                                            1 	(obj:0)
t_x_1712                                            1 	(obj:67)
t_x_1715                                            1 	(obj:5)
t_x_1716                                            1 	(obj:6)
t_x_1722                                            1 	(obj:9)
t_x_1727                                            1 	(obj:6)
t_x_1729                                            1 	(obj:8)
t_x_1733                                            1 	(obj:13)
t_x_1738                                            1 	(obj:14)
t_x_1746                                            1 	(obj:27)
t_x_1748                                            1 	(obj:11)
t_x_1751                                            1 	(obj:36)
t_x_1753                                            1 	(obj:5)
t_x_1758                                            1 	(obj:17)
t_x_1759                                            1 	(obj:4)
t_x_1765                                            1 	(obj:12)
t_x_1769                                            1 	(obj:20)
t_x_1770                                            1 	(obj:30)
t_x_1772                                            1 	(obj:10)
t_x_1777                                            1 	(obj:1)
t_x_1786                                            1 	(obj:6)
t_x_1791                                            1 	(obj:8)
t_x_1796                                            1 	(obj:48)
t_x_1810                                            1 	(obj:11)
t_x_1814                                            1 	(obj:36)
t_x_1818                                            1 	(obj:36)
t_x_1823                                            1 	(obj:51)
t_x_1825                                            1 	(obj:15)
t_x_1827                                            1 	(obj:11)
t_x_1830                                            1 	(obj:13)
t_x_1831                                            1 	(obj:2)
t_x_1836                                            1 	(obj:5)
t_x_1837                                            1 	(obj:11)
t_x_1841                                            1 	(obj:6)
t_x_1845                                            1 	(obj:10)
t_x_1846                                            1 	(obj:7)
t_x_1855                                            1 	(obj:17)
t_x_1859                                            1 	(obj:23)
t_x_1860                                            1 	(obj:2)
t_x_1861                                            1 	(obj:29)
t_x_1862                                            1 	(obj:15)
t_x_1867                                            1 	(obj:65)
t_x_1868                                            1 	(obj:10)
t_x_1869                                            1 	(obj:42)
t_x_1875                                            1 	(obj:14)
t_x_1876                                            1 	(obj:3)
t_x_1877                                            1 	(obj:10)
t_x_1884                                            1 	(obj:12)
t_x_1888                                            1 	(obj:10)
t_x_1891                                            1 	(obj:0)
t_x_1896                                            1 	(obj:25)
t_x_1899                                            1 	(obj:25)
t_x_1900                                            1 	(obj:39)
t_x_1901                                            1 	(obj:19)
t_x_1905                                            1 	(obj:6)
t_x_1910                                            1 	(obj:11)
t_x_1912                                            1 	(obj:11)
t_x_1913                                            1 	(obj:17)
t_x_1916                                            1 	(obj:1)
t_x_1918                                            1 	(obj:6)
t_x_1921                                            1 	(obj:13)
t_x_1922                                            1 	(obj:40)
t_x_1925                                            1 	(obj:74)
t_x_1930                                            1 	(obj:6)
t_x_1932                                            1 	(obj:49)
t_x_1936                                            1 	(obj:14)
t_x_1939                                            1 	(obj:4)
t_x_1943                                            1 	(obj:17)
t_x_1946                                            1 	(obj:7)
t_x_1951                                            1 	(obj:25)
t_x_1955                                            1 	(obj:5)
t_x_1957                                            1 	(obj:19)
t_x_1958                                            1 	(obj:21)
t_x_1964                                            1 	(obj:6)
t_x_1969                                            1 	(obj:16)
t_x_1970                                            1 	(obj:8)
t_x_1973                                            1 	(obj:37)
t_x_1978                                            1 	(obj:22)
t_x_1979                                            1 	(obj:2)
t_x_1980                                            1 	(obj:7)
t_x_1983                                            1 	(obj:37)
t_x_1990                                            1 	(obj:20)
t_x_1991                                            1 	(obj:5)
t_x_1993                                            1 	(obj:4)
t_x_1995                                            1 	(obj:12)
t_x_1999                                            1 	(obj:0)
